c Standarized MaxSat Instance
c{
c "sha1sum": "8758337ac718f835ee9ff50eb80695a9127787ce",
c "nvars": 40,
c "ncls": 1124,
c "nhards": 0,
c "nhard_len_stats":
c    { "min": 0, "max": 0, "ave": 0.00,
c      "stddev": 0.00 },
c "nsofts": 1124,
c "nsoft_len_stats":
c    { "min": 2, "max": 2, "ave": 2.00,
c      "stddev": 0.00 },
c "nsoft_wts": 10,
c "soft_wt_stats":
c    { "min": 1, "max": 10, "ave": 5.65,
c      "stddev": 2.81 }
c}
c------------------------------------------------------------
c File:  san200_0.7_2.clq
c
c SOURCE: Laura Sanchis (laura@cs.colgate.edu)
c
c REFERENCE: "Test Case Construction for the Vertex Cover Problem", 
c DIMACS Workshop on Computational Support for Discrete Mathematics, 
c March, 1992, with additional work in a to be published technical
c report.
c
c 200 vertices 13930 edges 18 max clique
c 200 5970 182 3352 291624 12
p wcnf 40 1124 6347
9 1 2 0
9 -1 -2 0
4 1 3 0
4 -1 -3 0
8 1 4 0
8 -1 -4 0
8 1 5 0
8 -1 -5 0
10 1 8 0
10 -1 -8 0
2 1 10 0
2 -1 -10 0
4 1 11 0
4 -1 -11 0
8 1 12 0
8 -1 -12 0
3 1 13 0
3 -1 -13 0
6 1 14 0
6 -1 -14 0
5 1 15 0
5 -1 -15 0
7 1 16 0
7 -1 -16 0
4 1 17 0
4 -1 -17 0
6 1 20 0
6 -1 -20 0
10 1 23 0
10 -1 -23 0
10 1 24 0
10 -1 -24 0
7 1 25 0
7 -1 -25 0
8 1 27 0
8 -1 -27 0
2 1 29 0
2 -1 -29 0
7 1 30 0
7 -1 -30 0
1 1 31 0
1 -1 -31 0
3 1 32 0
3 -1 -32 0
2 1 33 0
2 -1 -33 0
9 1 35 0
9 -1 -35 0
2 1 37 0
2 -1 -37 0
5 1 38 0
5 -1 -38 0
2 1 39 0
2 -1 -39 0
2 1 40 0
2 -1 -40 0
10 2 3 0
10 -2 -3 0
3 2 4 0
3 -2 -4 0
6 2 5 0
6 -2 -5 0
9 2 6 0
9 -2 -6 0
7 2 7 0
7 -2 -7 0
3 2 8 0
3 -2 -8 0
7 2 10 0
7 -2 -10 0
6 2 11 0
6 -2 -11 0
5 2 12 0
5 -2 -12 0
10 2 13 0
10 -2 -13 0
3 2 14 0
3 -2 -14 0
8 2 15 0
8 -2 -15 0
6 2 16 0
6 -2 -16 0
8 2 17 0
8 -2 -17 0
5 2 20 0
5 -2 -20 0
9 2 23 0
9 -2 -23 0
3 2 24 0
3 -2 -24 0
4 2 25 0
4 -2 -25 0
9 2 27 0
9 -2 -27 0
10 2 29 0
10 -2 -29 0
1 2 30 0
1 -2 -30 0
10 2 31 0
10 -2 -31 0
6 2 32 0
6 -2 -32 0
1 2 33 0
1 -2 -33 0
2 2 35 0
2 -2 -35 0
7 2 36 0
7 -2 -36 0
9 2 37 0
9 -2 -37 0
4 2 39 0
4 -2 -39 0
1 3 5 0
1 -3 -5 0
1 3 7 0
1 -3 -7 0
5 3 8 0
5 -3 -8 0
1 3 10 0
1 -3 -10 0
3 3 11 0
3 -3 -11 0
10 3 12 0
10 -3 -12 0
10 3 13 0
10 -3 -13 0
9 3 14 0
9 -3 -14 0
3 3 15 0
3 -3 -15 0
6 3 16 0
6 -3 -16 0
4 3 17 0
4 -3 -17 0
8 3 20 0
8 -3 -20 0
6 3 23 0
6 -3 -23 0
7 3 24 0
7 -3 -24 0
6 3 27 0
6 -3 -27 0
1 3 29 0
1 -3 -29 0
5 3 30 0
5 -3 -30 0
10 3 31 0
10 -3 -31 0
10 3 32 0
10 -3 -32 0
8 3 33 0
8 -3 -33 0
3 3 34 0
3 -3 -34 0
8 3 35 0
8 -3 -35 0
7 3 37 0
7 -3 -37 0
4 3 38 0
4 -3 -38 0
7 3 39 0
7 -3 -39 0
2 3 40 0
2 -3 -40 0
5 4 5 0
5 -4 -5 0
9 4 6 0
9 -4 -6 0
9 4 7 0
9 -4 -7 0
4 4 9 0
4 -4 -9 0
3 4 12 0
3 -4 -12 0
9 4 15 0
9 -4 -15 0
4 4 17 0
4 -4 -17 0
7 4 18 0
7 -4 -18 0
10 4 19 0
10 -4 -19 0
6 4 21 0
6 -4 -21 0
7 4 23 0
7 -4 -23 0
9 4 24 0
9 -4 -24 0
5 4 26 0
5 -4 -26 0
10 4 27 0
10 -4 -27 0
4 4 28 0
4 -4 -28 0
9 4 29 0
9 -4 -29 0
7 4 32 0
7 -4 -32 0
10 4 33 0
10 -4 -33 0
5 4 34 0
5 -4 -34 0
3 4 36 0
3 -4 -36 0
10 4 37 0
10 -4 -37 0
10 4 38 0
10 -4 -38 0
2 5 6 0
2 -5 -6 0
9 5 7 0
9 -5 -7 0
7 5 8 0
7 -5 -8 0
5 5 10 0
5 -5 -10 0
7 5 11 0
7 -5 -11 0
3 5 12 0
3 -5 -12 0
8 5 13 0
8 -5 -13 0
4 5 14 0
4 -5 -14 0
5 5 15 0
5 -5 -15 0
3 5 16 0
3 -5 -16 0
2 5 18 0
2 -5 -18 0
3 5 20 0
3 -5 -20 0
6 5 23 0
6 -5 -23 0
5 5 25 0
5 -5 -25 0
2 5 26 0
2 -5 -26 0
10 5 27 0
10 -5 -27 0
2 5 29 0
2 -5 -29 0
2 5 30 0
2 -5 -30 0
5 5 31 0
5 -5 -31 0
8 5 32 0
8 -5 -32 0
10 5 33 0
10 -5 -33 0
10 5 35 0
10 -5 -35 0
7 5 36 0
7 -5 -36 0
4 5 37 0
4 -5 -37 0
8 5 38 0
8 -5 -38 0
4 5 39 0
4 -5 -39 0
3 5 40 0
3 -5 -40 0
3 6 7 0
3 -6 -7 0
6 6 9 0
6 -6 -9 0
3 6 11 0
3 -6 -11 0
2 6 14 0
2 -6 -14 0
8 6 15 0
8 -6 -15 0
2 6 19 0
2 -6 -19 0
8 6 21 0
8 -6 -21 0
2 6 22 0
2 -6 -22 0
8 6 23 0
8 -6 -23 0
1 6 24 0
1 -6 -24 0
10 6 25 0
10 -6 -25 0
1 6 27 0
1 -6 -27 0
6 6 32 0
6 -6 -32 0
2 6 34 0
2 -6 -34 0
3 6 36 0
3 -6 -36 0
8 6 38 0
8 -6 -38 0
8 6 39 0
8 -6 -39 0
7 7 8 0
7 -7 -8 0
10 7 10 0
10 -7 -10 0
7 7 11 0
7 -7 -11 0
8 7 12 0
8 -7 -12 0
1 7 13 0
1 -7 -13 0
2 7 14 0
2 -7 -14 0
6 7 15 0
6 -7 -15 0
1 7 16 0
1 -7 -16 0
1 7 17 0
1 -7 -17 0
3 7 19 0
3 -7 -19 0
5 7 20 0
5 -7 -20 0
9 7 23 0
9 -7 -23 0
6 7 24 0
6 -7 -24 0
8 7 25 0
8 -7 -25 0
1 7 26 0
1 -7 -26 0
2 7 27 0
2 -7 -27 0
10 7 28 0
10 -7 -28 0
3 7 29 0
3 -7 -29 0
9 7 30 0
9 -7 -30 0
2 7 31 0
2 -7 -31 0
10 7 32 0
10 -7 -32 0
1 7 33 0
1 -7 -33 0
9 7 34 0
9 -7 -34 0
1 7 35 0
1 -7 -35 0
1 7 36 0
1 -7 -36 0
10 7 37 0
10 -7 -37 0
6 7 38 0
6 -7 -38 0
2 7 39 0
2 -7 -39 0
2 7 40 0
2 -7 -40 0
4 8 9 0
4 -8 -9 0
10 8 10 0
10 -8 -10 0
9 8 11 0
9 -8 -11 0
4 8 12 0
4 -8 -12 0
6 8 13 0
6 -8 -13 0
6 8 14 0
6 -8 -14 0
5 8 16 0
5 -8 -16 0
7 8 17 0
7 -8 -17 0
1 8 20 0
1 -8 -20 0
6 8 21 0
6 -8 -21 0
8 8 23 0
8 -8 -23 0
4 8 24 0
4 -8 -24 0
10 8 25 0
10 -8 -25 0
6 8 26 0
6 -8 -26 0
9 8 27 0
9 -8 -27 0
8 8 29 0
8 -8 -29 0
7 8 30 0
7 -8 -30 0
1 8 31 0
1 -8 -31 0
8 8 32 0
8 -8 -32 0
9 8 33 0
9 -8 -33 0
10 8 35 0
10 -8 -35 0
9 8 36 0
9 -8 -36 0
9 8 37 0
9 -8 -37 0
10 8 38 0
10 -8 -38 0
8 8 39 0
8 -8 -39 0
10 8 40 0
10 -8 -40 0
10 9 10 0
10 -9 -10 0
7 9 11 0
7 -9 -11 0
5 9 13 0
5 -9 -13 0
2 9 14 0
2 -9 -14 0
9 9 18 0
9 -9 -18 0
9 9 19 0
9 -9 -19 0
1 9 20 0
1 -9 -20 0
7 9 21 0
7 -9 -21 0
3 9 22 0
3 -9 -22 0
7 9 23 0
7 -9 -23 0
3 9 24 0
3 -9 -24 0
8 9 25 0
8 -9 -25 0
4 9 26 0
4 -9 -26 0
4 9 28 0
4 -9 -28 0
3 9 29 0
3 -9 -29 0
1 9 31 0
1 -9 -31 0
7 9 32 0
7 -9 -32 0
3 9 34 0
3 -9 -34 0
7 9 35 0
7 -9 -35 0
6 9 37 0
6 -9 -37 0
10 9 38 0
10 -9 -38 0
3 9 40 0
3 -9 -40 0
6 10 11 0
6 -10 -11 0
8 10 12 0
8 -10 -12 0
2 10 13 0
2 -10 -13 0
5 10 14 0
5 -10 -14 0
6 10 15 0
6 -10 -15 0
10 10 16 0
10 -10 -16 0
5 10 17 0
5 -10 -17 0
4 10 19 0
4 -10 -19 0
9 10 21 0
9 -10 -21 0
5 10 23 0
5 -10 -23 0
1 10 24 0
1 -10 -24 0
4 10 25 0
4 -10 -25 0
6 10 26 0
6 -10 -26 0
9 10 27 0
9 -10 -27 0
3 10 28 0
3 -10 -28 0
7 10 29 0
7 -10 -29 0
5 10 30 0
5 -10 -30 0
5 10 32 0
5 -10 -32 0
4 10 33 0
4 -10 -33 0
8 10 36 0
8 -10 -36 0
2 10 37 0
2 -10 -37 0
7 10 38 0
7 -10 -38 0
1 10 39 0
1 -10 -39 0
5 10 40 0
5 -10 -40 0
7 11 12 0
7 -11 -12 0
7 11 13 0
7 -11 -13 0
7 11 14 0
7 -11 -14 0
4 11 15 0
4 -11 -15 0
2 11 16 0
2 -11 -16 0
7 11 17 0
7 -11 -17 0
7 11 18 0
7 -11 -18 0
8 11 19 0
8 -11 -19 0
4 11 20 0
4 -11 -20 0
8 11 22 0
8 -11 -22 0
3 11 23 0
3 -11 -23 0
10 11 24 0
10 -11 -24 0
7 11 25 0
7 -11 -25 0
7 11 27 0
7 -11 -27 0
3 11 29 0
3 -11 -29 0
6 11 31 0
6 -11 -31 0
1 11 32 0
1 -11 -32 0
3 11 33 0
3 -11 -33 0
9 11 35 0
9 -11 -35 0
7 11 36 0
7 -11 -36 0
1 11 37 0
1 -11 -37 0
2 11 40 0
2 -11 -40 0
4 12 13 0
4 -12 -13 0
6 12 14 0
6 -12 -14 0
6 12 15 0
6 -12 -15 0
7 12 16 0
7 -12 -16 0
3 12 17 0
3 -12 -17 0
8 12 18 0
8 -12 -18 0
3 12 20 0
3 -12 -20 0
4 12 22 0
4 -12 -22 0
2 12 24 0
2 -12 -24 0
10 12 25 0
10 -12 -25 0
1 12 26 0
1 -12 -26 0
9 12 27 0
9 -12 -27 0
4 12 28 0
4 -12 -28 0
2 12 29 0
2 -12 -29 0
5 12 30 0
5 -12 -30 0
10 12 31 0
10 -12 -31 0
10 12 32 0
10 -12 -32 0
8 12 33 0
8 -12 -33 0
7 12 34 0
7 -12 -34 0
2 12 35 0
2 -12 -35 0
7 12 37 0
7 -12 -37 0
4 12 38 0
4 -12 -38 0
8 12 39 0
8 -12 -39 0
10 12 40 0
10 -12 -40 0
10 13 15 0
10 -13 -15 0
9 13 16 0
9 -13 -16 0
3 13 17 0
3 -13 -17 0
8 13 19 0
8 -13 -19 0
6 13 20 0
6 -13 -20 0
3 13 21 0
3 -13 -21 0
10 13 23 0
10 -13 -23 0
10 13 24 0
10 -13 -24 0
9 13 25 0
9 -13 -25 0
5 13 28 0
5 -13 -28 0
6 13 29 0
6 -13 -29 0
2 13 30 0
2 -13 -30 0
3 13 31 0
3 -13 -31 0
9 13 34 0
9 -13 -34 0
5 13 35 0
5 -13 -35 0
5 13 36 0
5 -13 -36 0
9 13 37 0
9 -13 -37 0
5 13 38 0
5 -13 -38 0
3 13 39 0
3 -13 -39 0
2 13 40 0
2 -13 -40 0
7 14 15 0
7 -14 -15 0
8 14 16 0
8 -14 -16 0
2 14 17 0
2 -14 -17 0
7 14 18 0
7 -14 -18 0
5 14 20 0
5 -14 -20 0
9 14 21 0
9 -14 -21 0
8 14 22 0
8 -14 -22 0
2 14 23 0
2 -14 -23 0
3 14 24 0
3 -14 -24 0
5 14 25 0
5 -14 -25 0
2 14 28 0
2 -14 -28 0
2 14 29 0
2 -14 -29 0
4 14 30 0
4 -14 -30 0
4 14 31 0
4 -14 -31 0
10 14 35 0
10 -14 -35 0
10 14 36 0
10 -14 -36 0
7 14 37 0
7 -14 -37 0
9 14 39 0
9 -14 -39 0
9 14 40 0
9 -14 -40 0
5 15 16 0
5 -15 -16 0
4 15 17 0
4 -15 -17 0
4 15 19 0
4 -15 -19 0
7 15 20 0
7 -15 -20 0
7 15 22 0
7 -15 -22 0
3 15 23 0
3 -15 -23 0
2 15 24 0
2 -15 -24 0
1 15 25 0
1 -15 -25 0
2 15 27 0
2 -15 -27 0
7 15 28 0
7 -15 -28 0
4 15 29 0
4 -15 -29 0
3 15 30 0
3 -15 -30 0
4 15 31 0
4 -15 -31 0
1 15 32 0
1 -15 -32 0
5 15 33 0
5 -15 -33 0
10 15 35 0
10 -15 -35 0
6 15 37 0
6 -15 -37 0
3 15 38 0
3 -15 -38 0
7 15 39 0
7 -15 -39 0
8 15 40 0
8 -15 -40 0
5 16 17 0
5 -16 -17 0
2 16 19 0
2 -16 -19 0
9 16 20 0
9 -16 -20 0
7 16 21 0
7 -16 -21 0
6 16 22 0
6 -16 -22 0
3 16 23 0
3 -16 -23 0
6 16 24 0
6 -16 -24 0
5 16 25 0
5 -16 -25 0
9 16 27 0
9 -16 -27 0
4 16 29 0
4 -16 -29 0
3 16 30 0
3 -16 -30 0
4 16 31 0
4 -16 -31 0
8 16 32 0
8 -16 -32 0
7 16 33 0
7 -16 -33 0
10 16 35 0
10 -16 -35 0
4 16 36 0
4 -16 -36 0
9 16 39 0
9 -16 -39 0
2 16 40 0
2 -16 -40 0
5 17 20 0
5 -17 -20 0
1 17 23 0
1 -17 -23 0
8 17 25 0
8 -17 -25 0
8 17 27 0
8 -17 -27 0
3 17 29 0
3 -17 -29 0
2 17 30 0
2 -17 -30 0
9 17 31 0
9 -17 -31 0
8 17 32 0
8 -17 -32 0
1 17 33 0
1 -17 -33 0
5 17 34 0
5 -17 -34 0
10 17 35 0
10 -17 -35 0
8 17 37 0
8 -17 -37 0
3 17 39 0
3 -17 -39 0
5 17 40 0
5 -17 -40 0
9 18 19 0
9 -18 -19 0
1 18 20 0
1 -18 -20 0
1 18 21 0
1 -18 -21 0
4 18 22 0
4 -18 -22 0
4 18 25 0
4 -18 -25 0
7 18 30 0
7 -18 -30 0
9 18 31 0
9 -18 -31 0
2 18 34 0
2 -18 -34 0
1 18 35 0
1 -18 -35 0
1 18 36 0
1 -18 -36 0
5 18 38 0
5 -18 -38 0
8 18 39 0
8 -18 -39 0
7 18 40 0
7 -18 -40 0
5 19 20 0
5 -19 -20 0
2 19 22 0
2 -19 -22 0
6 19 24 0
6 -19 -24 0
6 19 25 0
6 -19 -25 0
6 19 26 0
6 -19 -26 0
6 19 28 0
6 -19 -28 0
4 19 29 0
4 -19 -29 0
4 19 30 0
4 -19 -30 0
9 19 31 0
9 -19 -31 0
5 19 32 0
5 -19 -32 0
2 19 34 0
2 -19 -34 0
7 19 35 0
7 -19 -35 0
6 19 36 0
6 -19 -36 0
7 19 38 0
7 -19 -38 0
6 19 39 0
6 -19 -39 0
3 19 40 0
3 -19 -40 0
9 20 22 0
9 -20 -22 0
1 20 23 0
1 -20 -23 0
1 20 24 0
1 -20 -24 0
10 20 25 0
10 -20 -25 0
2 20 26 0
2 -20 -26 0
5 20 27 0
5 -20 -27 0
3 20 28 0
3 -20 -28 0
9 20 29 0
9 -20 -29 0
3 20 30 0
3 -20 -30 0
4 20 32 0
4 -20 -32 0
9 20 33 0
9 -20 -33 0
4 20 37 0
4 -20 -37 0
9 20 38 0
9 -20 -38 0
7 20 39 0
7 -20 -39 0
1 20 40 0
1 -20 -40 0
3 21 22 0
3 -21 -22 0
8 21 24 0
8 -21 -24 0
7 21 25 0
7 -21 -25 0
9 21 26 0
9 -21 -26 0
4 21 27 0
4 -21 -27 0
3 21 28 0
3 -21 -28 0
2 21 29 0
2 -21 -29 0
7 21 33 0
7 -21 -33 0
2 21 34 0
2 -21 -34 0
7 21 36 0
7 -21 -36 0
8 21 37 0
8 -21 -37 0
8 21 38 0
8 -21 -38 0
3 21 40 0
3 -21 -40 0
5 22 23 0
5 -22 -23 0
4 22 24 0
4 -22 -24 0
5 22 26 0
5 -22 -26 0
3 22 28 0
3 -22 -28 0
4 22 31 0
4 -22 -31 0
6 22 34 0
6 -22 -34 0
2 22 36 0
2 -22 -36 0
6 22 38 0
6 -22 -38 0
1 22 39 0
1 -22 -39 0
4 22 40 0
4 -22 -40 0
4 23 24 0
4 -23 -24 0
4 23 25 0
4 -23 -25 0
8 23 27 0
8 -23 -27 0
3 23 29 0
3 -23 -29 0
7 23 30 0
7 -23 -30 0
6 23 31 0
6 -23 -31 0
10 23 32 0
10 -23 -32 0
7 23 33 0
7 -23 -33 0
9 23 34 0
9 -23 -34 0
7 23 35 0
7 -23 -35 0
4 23 37 0
4 -23 -37 0
7 23 38 0
7 -23 -38 0
1 23 39 0
1 -23 -39 0
6 23 40 0
6 -23 -40 0
9 24 25 0
9 -24 -25 0
7 24 27 0
7 -24 -27 0
7 24 29 0
7 -24 -29 0
6 24 30 0
6 -24 -30 0
5 24 31 0
5 -24 -31 0
4 24 32 0
4 -24 -32 0
8 24 33 0
8 -24 -33 0
9 24 35 0
9 -24 -35 0
7 24 36 0
7 -24 -36 0
2 24 37 0
2 -24 -37 0
1 24 39 0
1 -24 -39 0
1 24 40 0
1 -24 -40 0
7 25 27 0
7 -25 -27 0
2 25 28 0
2 -25 -28 0
7 25 29 0
7 -25 -29 0
8 25 30 0
8 -25 -30 0
6 25 31 0
6 -25 -31 0
1 25 32 0
1 -25 -32 0
1 25 33 0
1 -25 -33 0
4 25 34 0
4 -25 -34 0
3 25 35 0
3 -25 -35 0
7 25 36 0
7 -25 -36 0
9 25 37 0
9 -25 -37 0
2 25 39 0
2 -25 -39 0
4 25 40 0
4 -25 -40 0
7 26 27 0
7 -26 -27 0
9 26 31 0
9 -26 -31 0
7 26 33 0
7 -26 -33 0
4 26 34 0
4 -26 -34 0
9 26 36 0
9 -26 -36 0
2 26 37 0
2 -26 -37 0
2 26 38 0
2 -26 -38 0
6 26 40 0
6 -26 -40 0
9 27 28 0
9 -27 -28 0
7 27 29 0
7 -27 -29 0
10 27 30 0
10 -27 -30 0
2 27 31 0
2 -27 -31 0
4 27 34 0
4 -27 -34 0
8 27 35 0
8 -27 -35 0
9 27 37 0
9 -27 -37 0
6 27 38 0
6 -27 -38 0
8 27 39 0
8 -27 -39 0
10 27 40 0
10 -27 -40 0
3 28 29 0
3 -28 -29 0
10 28 33 0
10 -28 -33 0
6 28 34 0
6 -28 -34 0
10 28 36 0
10 -28 -36 0
5 28 38 0
5 -28 -38 0
6 29 30 0
6 -29 -30 0
10 29 31 0
10 -29 -31 0
8 29 32 0
8 -29 -32 0
9 29 33 0
9 -29 -33 0
6 29 35 0
6 -29 -35 0
7 29 36 0
7 -29 -36 0
10 29 37 0
10 -29 -37 0
10 29 39 0
10 -29 -39 0
4 29 40 0
4 -29 -40 0
9 30 31 0
9 -30 -31 0
6 30 32 0
6 -30 -32 0
7 30 33 0
7 -30 -33 0
8 30 34 0
8 -30 -34 0
8 30 35 0
8 -30 -35 0
8 30 36 0
8 -30 -36 0
3 30 37 0
3 -30 -37 0
7 30 38 0
7 -30 -38 0
5 30 40 0
5 -30 -40 0
2 31 32 0
2 -31 -32 0
8 31 33 0
8 -31 -33 0
9 31 34 0
9 -31 -34 0
9 31 37 0
9 -31 -37 0
7 31 39 0
7 -31 -39 0
5 31 40 0
5 -31 -40 0
7 32 35 0
7 -32 -35 0
6 32 37 0
6 -32 -37 0
7 32 39 0
7 -32 -39 0
6 32 40 0
6 -32 -40 0
2 33 34 0
2 -33 -34 0
6 33 35 0
6 -33 -35 0
1 33 37 0
1 -33 -37 0
8 33 39 0
8 -33 -39 0
6 33 40 0
6 -33 -40 0
9 34 35 0
9 -34 -35 0
6 34 36 0
6 -34 -36 0
2 34 37 0
2 -34 -37 0
5 34 39 0
5 -34 -39 0
6 35 37 0
6 -35 -37 0
1 35 38 0
1 -35 -38 0
9 35 39 0
9 -35 -39 0
4 35 40 0
4 -35 -40 0
7 36 38 0
7 -36 -38 0
5 37 38 0
5 -37 -38 0
2 37 39 0
2 -37 -39 0
5 37 40 0
5 -37 -40 0
3 38 39 0
3 -38 -39 0
5 39 40 0
5 -39 -40 0
